N = 7;
Capacity = 20;
nbVehicles = 5;
maxVisitsPerCustomer = 2;
Demand = [31, 7, 6, 5, 3, 25, 6];
Distance = [|
  0, 57, 48, 28, 56, 16, 29, 58
| 57, 0, 47, 79, 87, 52, 84, 12
| 48, 47, 0, 52, 43, 56, 59, 39
| 28, 79, 52, 0, 36, 43, 8, 77
| 56, 87, 43, 36, 0, 71, 44, 81
| 16, 52, 56, 43, 71, 0, 43, 56
| 29, 84, 59, 8, 44, 43, 0, 83
| 58, 12, 39, 77, 81, 56, 83, 0
|];
